
Log started (V12.4.0.0) Wed Nov 18 10:47:59 2015


Problem 'cplex01.lp' read.
Read time =    0.00 sec.
Tried aggregator 1 time.
LP Presolve eliminated 2 rows and 0 columns.
Reduced LP has 2 rows, 2 columns, and 4 nonzeros.
Presolve time =    0.00 sec.

Iteration log . . .
Iteration:     1   Dual infeasibility =             0.000000
Iteration:     2   Dual objective     =            -9.000000

Dual simplex - Optimal:  Objective = -9.0000000000e+00
Solution time =    0.00 sec.  Iterations = 2 (1)
Deterministic time = 0.01 ticks  (5.69 ticks/sec)


Variable Name           Solution Value
x1                            1.000000
x2                            1.000000

Problem 'cplex01.lp' read.
Read time =    0.00 sec.
Infeasible column 'v'.
Presolve time =    0.00 sec.
Presolve - Unbounded or infeasible.
Solution time =    0.00 sec.
Deterministic time = 0.00 ticks  (1.23 ticks/sec)
No solution exists.

Problem 'cplex01.lp' read.
Read time =    0.00 sec.
Tried aggregator 1 time.
LP Presolve eliminated 1 rows and 0 columns.
Reduced LP has 3 rows, 2 columns, and 6 nonzeros.
Presolve time =    0.00 sec.

Iteration log . . .
Iteration:     1   Dual objective     =             2.000000

Dual simplex - Optimal:  Objective =  2.5000000000e+00
Solution time =    0.00 sec.  Iterations = 2 (0)
Deterministic time = 0.01 ticks  (6.29 ticks/sec)

